NAME: tsp30-39
TYPE: TSP
DIMENSION: 30
EDGE_WEIGHT_TYPE: EUC_2D
NODE_COORD_SECTION
0 19 21
1 95 44
2 24 5
3 52 4
4 27 81
5 57 74
6 43 58
7 60 94
8 76 8
9 19 76
10 57 88
11 88 93
12 98 80
13 84 85
14 15 65
15 18 37
16 22 21
17 17 3
18 98 90
19 74 28
20 4 21
21 97 89
22 73 60
23 57 93
24 13 89
25 73 2
26 3 41
27 16 19
28 7 32
29 72 34
EOF